results/res_prop_muc/res_Cimatti_mathsat_cores/QF_UF/SEQ032_size2.smt.smt2.res
unsat
( _c0
  _c11
  _c12
  _c13
  _c15
  _c16
  _c17
  _c18
  _c19
  _c21
  _c22
  _c4
  _c6
  _c7
  _c8 )
